NAME /Users/henri/Research/solvers/instances/idol-instances/robust/collection/cbp_Subramanyam_et_al_2020/CapBud_N20_14/models/uncertain_technology_matrix/
ROWS
 N  OBJ
 L  capacity
 L  c_3055
 L  c_3056
 L  c_3057
 L  c_3058
 L  c_3059
 L  c_3060
 L  c_3061
 L  c_3062
 L  c_3063
 L  c_3064
 L  c_3065
 L  c_3066
 L  c_3067
 L  c_3068
 L  c_3069
 L  c_3070
 L  c_3071
 L  c_3072
 L  c_3073
 L  c_3074
COLUMNS
    MARKER    'MARKER'                 'INTORG'
    x_0        OBJ        1.93499
    x_0        c_3055     1
    x_0        capacity   0.386998
    x_1        OBJ        6.94119
    x_1        c_3056     1
    x_1        capacity   1.38824
    x_2        OBJ        8.42364
    x_2        c_3057     1
    x_2        capacity   1.68473
    x_3        OBJ        5.07658
    x_3        c_3058     1
    x_3        capacity   1.01532
    x_4        OBJ        6.95094
    x_4        c_3059     1
    x_4        capacity   1.39019
    x_5        OBJ        1.12932
    x_5        c_3060     1
    x_5        capacity   0.225865
    x_6        OBJ        7.35537
    x_6        c_3061     1
    x_6        capacity   1.47107
    x_7        OBJ        9.86359
    x_7        c_3062     1
    x_7        capacity   1.97272
    x_8        OBJ        2.49861
    x_8        c_3063     1
    x_8        capacity   0.499722
    x_9        OBJ        7.35371
    x_9        c_3064     1
    x_9        capacity   1.47074
    x_10       OBJ        9.35753
    x_10       c_3065     1
    x_10       capacity   1.87151
    x_11       OBJ        2.48847
    x_11       c_3066     1
    x_11       capacity   0.497693
    x_12       OBJ        5.8384
    x_12       c_3067     1
    x_12       capacity   1.16768
    x_13       OBJ        7.96417
    x_13       c_3068     1
    x_13       capacity   1.59283
    x_14       OBJ        1.38353
    x_14       c_3069     1
    x_14       capacity   0.276706
    x_15       OBJ        1.51445
    x_15       c_3070     1
    x_15       capacity   0.302889
    x_16       OBJ        3.06879
    x_16       c_3071     1
    x_16       capacity   0.613759
    x_17       OBJ        6.08008
    x_17       c_3072     1
    x_17       capacity   1.21602
    x_18       OBJ        6.01227
    x_18       c_3073     1
    x_18       capacity   1.20245
    x_19       OBJ        3.10186
    x_19       c_3074     1
    x_19       capacity   0.620371
    y_0        OBJ        1.54799
    y_0        c_3055     1
    y_0        capacity   0.386998
    y_1        OBJ        5.55295
    y_1        c_3056     1
    y_1        capacity   1.38824
    y_2        OBJ        6.73891
    y_2        c_3057     1
    y_2        capacity   1.68473
    y_3        OBJ        4.06126
    y_3        c_3058     1
    y_3        capacity   1.01532
    y_4        OBJ        5.56075
    y_4        c_3059     1
    y_4        capacity   1.39019
    y_5        OBJ        0.90346
    y_5        c_3060     1
    y_5        capacity   0.225865
    y_6        OBJ        5.88429
    y_6        c_3061     1
    y_6        capacity   1.47107
    y_7        OBJ        7.89087
    y_7        c_3062     1
    y_7        capacity   1.97272
    y_8        OBJ        1.99889
    y_8        c_3063     1
    y_8        capacity   0.499722
    y_9        OBJ        5.88297
    y_9        c_3064     1
    y_9        capacity   1.47074
    y_10       OBJ        7.48603
    y_10       c_3065     1
    y_10       capacity   1.87151
    y_11       OBJ        1.99077
    y_11       c_3066     1
    y_11       capacity   0.497693
    y_12       OBJ        4.67072
    y_12       c_3067     1
    y_12       capacity   1.16768
    y_13       OBJ        6.37133
    y_13       c_3068     1
    y_13       capacity   1.59283
    y_14       OBJ        1.10682
    y_14       c_3069     1
    y_14       capacity   0.276706
    y_15       OBJ        1.21156
    y_15       c_3070     1
    y_15       capacity   0.302889
    y_16       OBJ        2.45504
    y_16       c_3071     1
    y_16       capacity   0.613759
    y_17       OBJ        4.86406
    y_17       c_3072     1
    y_17       capacity   1.21602
    y_18       OBJ        4.80981
    y_18       c_3073     1
    y_18       capacity   1.20245
    y_19       OBJ        2.48148
    y_19       c_3074     1
    y_19       capacity   0.620371
    MARKER    'MARKER'                 'INTEND'
RHS
    RHS       capacity   52.1687
    RHS       c_3055     1
    RHS       c_3056     1
    RHS       c_3057     1
    RHS       c_3058     1
    RHS       c_3059     1
    RHS       c_3060     1
    RHS       c_3061     1
    RHS       c_3062     1
    RHS       c_3063     1
    RHS       c_3064     1
    RHS       c_3065     1
    RHS       c_3066     1
    RHS       c_3067     1
    RHS       c_3068     1
    RHS       c_3069     1
    RHS       c_3070     1
    RHS       c_3071     1
    RHS       c_3072     1
    RHS       c_3073     1
    RHS       c_3074     1
BOUNDS
 LI BND       x_0        0
 UI BND       x_0        1
 LI BND       x_1        0
 UI BND       x_1        1
 LI BND       x_2        0
 UI BND       x_2        1
 LI BND       x_3        0
 UI BND       x_3        1
 LI BND       x_4        0
 UI BND       x_4        1
 LI BND       x_5        0
 UI BND       x_5        1
 LI BND       x_6        0
 UI BND       x_6        1
 LI BND       x_7        0
 UI BND       x_7        1
 LI BND       x_8        0
 UI BND       x_8        1
 LI BND       x_9        0
 UI BND       x_9        1
 LI BND       x_10       0
 UI BND       x_10       1
 LI BND       x_11       0
 UI BND       x_11       1
 LI BND       x_12       0
 UI BND       x_12       1
 LI BND       x_13       0
 UI BND       x_13       1
 LI BND       x_14       0
 UI BND       x_14       1
 LI BND       x_15       0
 UI BND       x_15       1
 LI BND       x_16       0
 UI BND       x_16       1
 LI BND       x_17       0
 UI BND       x_17       1
 LI BND       x_18       0
 UI BND       x_18       1
 LI BND       x_19       0
 UI BND       x_19       1
 LI BND       y_0        0
 UI BND       y_0        1
 LI BND       y_1        0
 UI BND       y_1        1
 LI BND       y_2        0
 UI BND       y_2        1
 LI BND       y_3        0
 UI BND       y_3        1
 LI BND       y_4        0
 UI BND       y_4        1
 LI BND       y_5        0
 UI BND       y_5        1
 LI BND       y_6        0
 UI BND       y_6        1
 LI BND       y_7        0
 UI BND       y_7        1
 LI BND       y_8        0
 UI BND       y_8        1
 LI BND       y_9        0
 UI BND       y_9        1
 LI BND       y_10       0
 UI BND       y_10       1
 LI BND       y_11       0
 UI BND       y_11       1
 LI BND       y_12       0
 UI BND       y_12       1
 LI BND       y_13       0
 UI BND       y_13       1
 LI BND       y_14       0
 UI BND       y_14       1
 LI BND       y_15       0
 UI BND       y_15       1
 LI BND       y_16       0
 UI BND       y_16       1
 LI BND       y_17       0
 UI BND       y_17       1
 LI BND       y_18       0
 UI BND       y_18       1
 LI BND       y_19       0
 UI BND       y_19       1
ENDATA
